p cnf 862 2629
-1 -3 51 0
1 -3 -51 0
-1 3 -51 0
1 3 51 0
4 -5 52 0
-4 -5 -52 0
4 5 -52 0
-4 5 52 0
-7 -8 53 0
7 -8 -53 0
-7 8 -53 0
7 8 53 0
11 -13 54 0
-11 -13 -54 0
11 13 -54 0
-11 13 54 0
19 20 55 0
-19 20 -55 0
19 -20 -55 0
-19 -20 55 0
25 26 56 0
-25 26 -56 0
25 -26 -56 0
-25 -26 56 0
34 -35 57 0
-34 -35 -57 0
34 35 -57 0
-34 35 57 0
-36 -39 58 0
36 -39 -58 0
-36 39 -58 0
36 39 58 0
-41 -42 59 0
41 -42 -59 0
-41 42 -59 0
41 42 59 0
-43 -45 60 0
43 -45 -60 0
-43 45 -60 0
43 45 60 0
-47 48 61 0
47 48 -61 0
-47 -48 -61 0
47 -48 61 0
50 -51 62 0
-50 -51 -62 0
50 51 -62 0
-50 51 62 0
52 -53 63 0
-52 -53 -63 0
52 53 -63 0
-52 53 63 0
54 -55 64 0
-54 -55 -64 0
54 55 -64 0
-54 55 64 0
56 -57 65 0
-56 -57 -65 0
56 57 -65 0
-56 57 65 0
58 -59 66 0
-58 -59 -66 0
58 59 -66 0
-58 59 66 0
60 -61 67 0
-60 -61 -67 0
60 61 -67 0
-60 61 67 0
62 -63 68 0
-62 -63 -68 0
62 63 -68 0
-62 63 68 0
64 -65 69 0
-64 -65 -69 0
64 65 -69 0
-64 65 69 0
66 -67 70 0
-66 -67 -70 0
66 67 -70 0
-66 67 70 0
-68 -69 70 0
68 -69 -70 0
-68 69 -70 0
68 69 70 0
-1 -9 71 0
1 -9 -71 0
-1 9 -71 0
1 9 71 0
-14 -17 72 0
14 -17 -72 0
-14 17 -72 0
14 17 72 0
-18 19 73 0
18 19 -73 0
-18 -19 -73 0
18 -19 73 0
-20 22 74 0
20 22 -74 0
-20 -22 -74 0
20 -22 74 0
-23 24 75 0
23 24 -75 0
-23 -24 -75 0
23 -24 75 0
-26 -28 76 0
26 -28 -76 0
-26 28 -76 0
26 28 76 0
-29 -31 77 0
29 -31 -77 0
-29 31 -77 0
29 31 77 0
32 33 78 0
-32 33 -78 0
32 -33 -78 0
-32 -33 78 0
34 -36 79 0
-34 -36 -79 0
34 36 -79 0
-34 36 79 0
37 41 80 0
-37 41 -80 0
37 -41 -80 0
-37 -41 80 0
-47 -48 81 0
47 -48 -81 0
-47 48 -81 0
47 48 81 0
70 -71 82 0
-70 -71 -82 0
70 71 -82 0
-70 71 82 0
72 -73 83 0
-72 -73 -83 0
72 73 -83 0
-72 73 83 0
74 -75 84 0
-74 -75 -84 0
74 75 -84 0
-74 75 84 0
76 -77 85 0
-76 -77 -85 0
76 77 -85 0
-76 77 85 0
78 -79 86 0
-78 -79 -86 0
78 79 -86 0
-78 79 86 0
80 -81 87 0
-80 -81 -87 0
80 81 -87 0
-80 81 87 0
82 -83 88 0
-82 -83 -88 0
82 83 -88 0
-82 83 88 0
84 -85 89 0
-84 -85 -89 0
84 85 -89 0
-84 85 89 0
86 -87 90 0
-86 -87 -90 0
86 87 -90 0
-86 87 90 0
-88 -89 90 0
88 -89 -90 0
-88 89 -90 0
88 89 90 0
1 -2 91 0
-1 -2 -91 0
1 2 -91 0
-1 2 91 0
3 7 92 0
-3 7 -92 0
3 -7 -92 0
-3 -7 92 0
-8 9 93 0
8 9 -93 0
-8 -9 -93 0
8 -9 93 0
14 15 94 0
-14 15 -94 0
14 -15 -94 0
-14 -15 94 0
18 20 95 0
-18 20 -95 0
18 -20 -95 0
-18 -20 95 0
21 -23 96 0
-21 -23 -96 0
21 23 -96 0
-21 23 96 0
-24 25 97 0
24 25 -97 0
-24 -25 -97 0
24 -25 97 0
27 30 98 0
-27 30 -98 0
27 -30 -98 0
-27 -30 98 0
31 33 99 0
-31 33 -99 0
31 -33 -99 0
-31 -33 99 0
-35 36 100 0
35 36 -100 0
-35 -36 -100 0
35 -36 100 0
37 -39 101 0
-37 -39 -101 0
37 39 -101 0
-37 39 101 0
-42 43 102 0
42 43 -102 0
-42 -43 -102 0
42 -43 102 0
-45 -46 103 0
45 -46 -103 0
-45 46 -103 0
45 46 103 0
-47 50 104 0
47 50 -104 0
-47 -50 -104 0
47 -50 104 0
91 -92 105 0
-91 -92 -105 0
91 92 -105 0
-91 92 105 0
93 -94 106 0
-93 -94 -106 0
93 94 -106 0
-93 94 106 0
95 -96 107 0
-95 -96 -107 0
95 96 -107 0
-95 96 107 0
97 -98 108 0
-97 -98 -108 0
97 98 -108 0
-97 98 108 0
99 -100 109 0
-99 -100 -109 0
99 100 -109 0
-99 100 109 0
101 -102 110 0
-101 -102 -110 0
101 102 -110 0
-101 102 110 0
103 -104 111 0
-103 -104 -111 0
103 104 -111 0
-103 104 111 0
105 -106 112 0
-105 -106 -112 0
105 106 -112 0
-105 106 112 0
107 -108 113 0
-107 -108 -113 0
107 108 -113 0
-107 108 113 0
109 -110 114 0
-109 -110 -114 0
109 110 -114 0
-109 110 114 0
111 -112 115 0
-111 -112 -115 0
111 112 -115 0
-111 112 115 0
113 -114 116 0
-113 -114 -116 0
113 114 -116 0
-113 114 116 0
115 116 0
-115 -116 0
-1 2 117 0
1 2 -117 0
-1 -2 -117 0
1 -2 117 0
3 -4 118 0
-3 -4 -118 0
3 4 -118 0
-3 4 118 0
6 7 119 0
-6 7 -119 0
6 -7 -119 0
-6 -7 119 0
8 10 120 0
-8 10 -120 0
8 -10 -120 0
-8 -10 120 0
13 14 121 0
-13 14 -121 0
13 -14 -121 0
-13 -14 121 0
15 -19 122 0
-15 -19 -122 0
15 19 -122 0
-15 19 122 0
21 -22 123 0
-21 -22 -123 0
21 22 -123 0
-21 22 123 0
24 -27 124 0
-24 -27 -124 0
24 27 -124 0
-24 27 124 0
-28 -31 125 0
28 -31 -125 0
-28 31 -125 0
28 31 125 0
33 34 126 0
-33 34 -126 0
33 -34 -126 0
-33 -34 126 0
35 41 127 0
-35 41 -127 0
35 -41 -127 0
-35 -41 127 0
42 43 128 0
-42 43 -128 0
42 -43 -128 0
-42 -43 128 0
47 49 129 0
-47 49 -129 0
47 -49 -129 0
-47 -49 129 0
117 -118 130 0
-117 -118 -130 0
117 118 -130 0
-117 118 130 0
119 -120 131 0
-119 -120 -131 0
119 120 -131 0
-119 120 131 0
121 -122 132 0
-121 -122 -132 0
121 122 -132 0
-121 122 132 0
123 -124 133 0
-123 -124 -133 0
123 124 -133 0
-123 124 133 0
125 -126 134 0
-125 -126 -134 0
125 126 -134 0
-125 126 134 0
127 -128 135 0
-127 -128 -135 0
127 128 -135 0
-127 128 135 0
129 -130 136 0
-129 -130 -136 0
129 130 -136 0
-129 130 136 0
131 -132 137 0
-131 -132 -137 0
131 132 -137 0
-131 132 137 0
133 -134 138 0
-133 -134 -138 0
133 134 -138 0
-133 134 138 0
135 -136 139 0
-135 -136 -139 0
135 136 -139 0
-135 136 139 0
137 -138 140 0
-137 -138 -140 0
137 138 -140 0
-137 138 140 0
139 140 0
-139 -140 0
-1 2 141 0
1 2 -141 0
-1 -2 -141 0
1 -2 141 0
3 4 142 0
-3 4 -142 0
3 -4 -142 0
-3 -4 142 0
9 -10 143 0
-9 -10 -143 0
9 10 -143 0
-9 10 143 0
11 -16 144 0
-11 -16 -144 0
11 16 -144 0
-11 16 144 0
17 22 145 0
-17 22 -145 0
17 -22 -145 0
-17 -22 145 0
23 25 146 0
-23 25 -146 0
23 -25 -146 0
-23 -25 146 0
30 32 147 0
-30 32 -147 0
30 -32 -147 0
-30 -32 147 0
-34 -36 148 0
34 -36 -148 0
-34 36 -148 0
34 36 148 0
-38 39 149 0
38 39 -149 0
-38 -39 -149 0
38 -39 149 0
-40 -43 150 0
40 -43 -150 0
-40 43 -150 0
40 43 150 0
-44 45 151 0
44 45 -151 0
-44 -45 -151 0
44 -45 151 0
-46 -47 152 0
46 -47 -152 0
-46 47 -152 0
46 47 152 0
141 -142 153 0
-141 -142 -153 0
141 142 -153 0
-141 142 153 0
143 -144 154 0
-143 -144 -154 0
143 144 -154 0
-143 144 154 0
145 -146 155 0
-145 -146 -155 0
145 146 -155 0
-145 146 155 0
147 -148 156 0
-147 -148 -156 0
147 148 -156 0
-147 148 156 0
149 -150 157 0
-149 -150 -157 0
149 150 -157 0
-149 150 157 0
151 -152 158 0
-151 -152 -158 0
151 152 -158 0
-151 152 158 0
153 -154 159 0
-153 -154 -159 0
153 154 -159 0
-153 154 159 0
155 -156 160 0
-155 -156 -160 0
155 156 -160 0
-155 156 160 0
157 -158 161 0
-157 -158 -161 0
157 158 -161 0
-157 158 161 0
-159 -160 161 0
159 -160 -161 0
-159 160 -161 0
159 160 161 0
2 -4 162 0
-2 -4 -162 0
2 4 -162 0
-2 4 162 0
-5 -9 163 0
5 -9 -163 0
-5 9 -163 0
5 9 163 0
11 14 164 0
-11 14 -164 0
11 -14 -164 0
-11 -14 164 0
16 19 165 0
-16 19 -165 0
16 -19 -165 0
-16 -19 165 0
22 -23 166 0
-22 -23 -166 0
22 23 -166 0
-22 23 166 0
24 -28 167 0
-24 -28 -167 0
24 28 -167 0
-24 28 167 0
-29 36 168 0
29 36 -168 0
-29 -36 -168 0
29 -36 168 0
39 -41 169 0
-39 -41 -169 0
39 41 -169 0
-39 41 169 0
42 -43 170 0
-42 -43 -170 0
42 43 -170 0
-42 43 170 0
44 -45 171 0
-44 -45 -171 0
44 45 -171 0
-44 45 171 0
46 49 172 0
-46 49 -172 0
46 -49 -172 0
-46 -49 172 0
161 -162 173 0
-161 -162 -173 0
161 162 -173 0
-161 162 173 0
163 -164 174 0
-163 -164 -174 0
163 164 -174 0
-163 164 174 0
165 -166 175 0
-165 -166 -175 0
165 166 -175 0
-165 166 175 0
167 -168 176 0
-167 -168 -176 0
167 168 -176 0
-167 168 176 0
169 -170 177 0
-169 -170 -177 0
169 170 -177 0
-169 170 177 0
171 -172 178 0
-171 -172 -178 0
171 172 -178 0
-171 172 178 0
173 -174 179 0
-173 -174 -179 0
173 174 -179 0
-173 174 179 0
175 -176 180 0
-175 -176 -180 0
175 176 -180 0
-175 176 180 0
177 -178 181 0
-177 -178 -181 0
177 178 -181 0
-177 178 181 0
-179 -180 181 0
179 -180 -181 0
-179 180 -181 0
179 180 181 0
-2 -5 182 0
2 -5 -182 0
-2 5 -182 0
2 5 182 0
7 -8 183 0
-7 -8 -183 0
7 8 -183 0
-7 8 183 0
-10 11 184 0
10 11 -184 0
-10 -11 -184 0
10 -11 184 0
12 -13 185 0
-12 -13 -185 0
12 13 -185 0
-12 13 185 0
-15 18 186 0
15 18 -186 0
-15 -18 -186 0
15 -18 186 0
-19 -20 187 0
19 -20 -187 0
-19 20 -187 0
19 20 187 0
23 -26 188 0
-23 -26 -188 0
23 26 -188 0
-23 26 188 0
-30 31 189 0
30 31 -189 0
-30 -31 -189 0
30 -31 189 0
33 -35 190 0
-33 -35 -190 0
33 35 -190 0
-33 35 190 0
38 -40 191 0
-38 -40 -191 0
38 40 -191 0
-38 40 191 0
41 42 192 0
-41 42 -192 0
41 -42 -192 0
-41 -42 192 0
44 -47 193 0
-44 -47 -193 0
44 47 -193 0
-44 47 193 0
48 -50 194 0
-48 -50 -194 0
48 50 -194 0
-48 50 194 0
182 -183 195 0
-182 -183 -195 0
182 183 -195 0
-182 183 195 0
184 -185 196 0
-184 -185 -196 0
184 185 -196 0
-184 185 196 0
186 -187 197 0
-186 -187 -197 0
186 187 -197 0
-186 187 197 0
188 -189 198 0
-188 -189 -198 0
188 189 -198 0
-188 189 198 0
190 -191 199 0
-190 -191 -199 0
190 191 -199 0
-190 191 199 0
192 -193 200 0
-192 -193 -200 0
192 193 -200 0
-192 193 200 0
194 -195 201 0
-194 -195 -201 0
194 195 -201 0
-194 195 201 0
196 -197 202 0
-196 -197 -202 0
196 197 -202 0
-196 197 202 0
198 -199 203 0
-198 -199 -203 0
198 199 -203 0
-198 199 203 0
200 -201 204 0
-200 -201 -204 0
200 201 -204 0
-200 201 204 0
202 -203 205 0
-202 -203 -205 0
202 203 -205 0
-202 203 205 0
204 205 0
-204 -205 0
-1 -3 206 0
1 -3 -206 0
-1 3 -206 0
1 3 206 0
4 5 207 0
-4 5 -207 0
4 -5 -207 0
-4 -5 207 0
7 11 208 0
-7 11 -208 0
7 -11 -208 0
-7 -11 208 0
14 -15 209 0
-14 -15 -209 0
14 15 -209 0
-14 15 209 0
-16 -17 210 0
16 -17 -210 0
-16 17 -210 0
16 17 210 0
18 20 211 0
-18 20 -211 0
18 -20 -211 0
-18 -20 211 0
22 25 212 0
-22 25 -212 0
22 -25 -212 0
-22 -25 212 0
-26 27 213 0
26 27 -213 0
-26 -27 -213 0
26 -27 213 0
-28 -30 214 0
28 -30 -214 0
-28 30 -214 0
28 30 214 0
-36 -40 215 0
36 -40 -215 0
-36 40 -215 0
36 40 215 0
-41 -43 216 0
41 -43 -216 0
-41 43 -216 0
41 43 216 0
-44 -48 217 0
44 -48 -217 0
-44 48 -217 0
44 48 217 0
206 -207 218 0
-206 -207 -218 0
206 207 -218 0
-206 207 218 0
208 -209 219 0
-208 -209 -219 0
208 209 -219 0
-208 209 219 0
210 -211 220 0
-210 -211 -220 0
210 211 -220 0
-210 211 220 0
212 -213 221 0
-212 -213 -221 0
212 213 -221 0
-212 213 221 0
214 -215 222 0
-214 -215 -222 0
214 215 -222 0
-214 215 222 0
216 -217 223 0
-216 -217 -223 0
216 217 -223 0
-216 217 223 0
218 -219 224 0
-218 -219 -224 0
218 219 -224 0
-218 219 224 0
220 -221 225 0
-220 -221 -225 0
220 221 -225 0
-220 221 225 0
222 -223 226 0
-222 -223 -226 0
222 223 -226 0
-222 223 226 0
-224 -225 226 0
224 -225 -226 0
-224 225 -226 0
224 225 226 0
1 2 227 0
-1 2 -227 0
1 -2 -227 0
-1 -2 227 0
-4 7 228 0
4 7 -228 0
-4 -7 -228 0
4 -7 228 0
8 -13 229 0
-8 -13 -229 0
8 13 -229 0
-8 13 229 0
-14 -20 230 0
14 -20 -230 0
-14 20 -230 0
14 20 230 0
21 -22 231 0
-21 -22 -231 0
21 22 -231 0
-21 22 231 0
-24 -31 232 0
24 -31 -232 0
-24 31 -232 0
24 31 232 0
-33 -34 233 0
33 -34 -233 0
-33 34 -233 0
33 34 233 0
-35 -36 234 0
35 -36 -234 0
-35 36 -234 0
35 36 234 0
40 -41 235 0
-40 -41 -235 0
40 41 -235 0
-40 41 235 0
42 43 236 0
-42 43 -236 0
42 -43 -236 0
-42 -43 236 0
44 -46 237 0
-44 -46 -237 0
44 46 -237 0
-44 46 237 0
226 -227 238 0
-226 -227 -238 0
226 227 -238 0
-226 227 238 0
228 -229 239 0
-228 -229 -239 0
228 229 -239 0
-228 229 239 0
230 -231 240 0
-230 -231 -240 0
230 231 -240 0
-230 231 240 0
232 -233 241 0
-232 -233 -241 0
232 233 -241 0
-232 233 241 0
234 -235 242 0
-234 -235 -242 0
234 235 -242 0
-234 235 242 0
236 -237 243 0
-236 -237 -243 0
236 237 -243 0
-236 237 243 0
238 -239 244 0
-238 -239 -244 0
238 239 -244 0
-238 239 244 0
240 -241 245 0
-240 -241 -245 0
240 241 -245 0
-240 241 245 0
242 -243 246 0
-242 -243 -246 0
242 243 -246 0
-242 243 246 0
-244 -245 246 0
244 -245 -246 0
-244 245 -246 0
244 245 246 0
-3 4 247 0
3 4 -247 0
-3 -4 -247 0
3 -4 247 0
5 7 248 0
-5 7 -248 0
5 -7 -248 0
-5 -7 248 0
10 -12 249 0
-10 -12 -249 0
10 12 -249 0
-10 12 249 0
-14 16 250 0
14 16 -250 0
-14 -16 -250 0
14 -16 250 0
19 -22 251 0
-19 -22 -251 0
19 22 -251 0
-19 22 251 0
23 24 252 0
-23 24 -252 0
23 -24 -252 0
-23 -24 252 0
-26 -28 253 0
26 -28 -253 0
-26 28 -253 0
26 28 253 0
-29 30 254 0
29 30 -254 0
-29 -30 -254 0
29 -30 254 0
35 -38 255 0
-35 -38 -255 0
35 38 -255 0
-35 38 255 0
-42 -46 256 0
42 -46 -256 0
-42 46 -256 0
42 46 256 0
247 -248 257 0
-247 -248 -257 0
247 248 -257 0
-247 248 257 0
249 -250 258 0
-249 -250 -258 0
249 250 -258 0
-249 250 258 0
251 -252 259 0
-251 -252 -259 0
251 252 -259 0
-251 252 259 0
253 -254 260 0
-253 -254 -260 0
253 254 -260 0
-253 254 260 0
255 -256 261 0
-255 -256 -261 0
255 256 -261 0
-255 256 261 0
257 -258 262 0
-257 -258 -262 0
257 258 -262 0
-257 258 262 0
259 -260 263 0
-259 -260 -263 0
259 260 -263 0
-259 260 263 0
-261 -262 263 0
261 -262 -263 0
-261 262 -263 0
261 262 263 0
1 -3 264 0
-1 -3 -264 0
1 3 -264 0
-1 3 264 0
7 -8 265 0
-7 -8 -265 0
7 8 -265 0
-7 8 265 0
9 -10 266 0
-9 -10 -266 0
9 10 -266 0
-9 10 266 0
13 -16 267 0
-13 -16 -267 0
13 16 -267 0
-13 16 267 0
-18 20 268 0
18 20 -268 0
-18 -20 -268 0
18 -20 268 0
21 23 269 0
-21 23 -269 0
21 -23 -269 0
-21 -23 269 0
26 27 270 0
-26 27 -270 0
26 -27 -270 0
-26 -27 270 0
28 29 271 0
-28 29 -271 0
28 -29 -271 0
-28 -29 271 0
30 -33 272 0
-30 -33 -272 0
30 33 -272 0
-30 33 272 0
34 35 273 0
-34 35 -273 0
34 -35 -273 0
-34 -35 273 0
-36 -37 274 0
36 -37 -274 0
-36 37 -274 0
36 37 274 0
-39 40 275 0
39 40 -275 0
-39 -40 -275 0
39 -40 275 0
-41 42 276 0
41 42 -276 0
-41 -42 -276 0
41 -42 276 0
263 -264 277 0
-263 -264 -277 0
263 264 -277 0
-263 264 277 0
265 -266 278 0
-265 -266 -278 0
265 266 -278 0
-265 266 278 0
267 -268 279 0
-267 -268 -279 0
267 268 -279 0
-267 268 279 0
269 -270 280 0
-269 -270 -280 0
269 270 -280 0
-269 270 280 0
271 -272 281 0
-271 -272 -281 0
271 272 -281 0
-271 272 281 0
273 -274 282 0
-273 -274 -282 0
273 274 -282 0
-273 274 282 0
275 -276 283 0
-275 -276 -283 0
275 276 -283 0
-275 276 283 0
277 -278 284 0
-277 -278 -284 0
277 278 -284 0
-277 278 284 0
279 -280 285 0
-279 -280 -285 0
279 280 -285 0
-279 280 285 0
281 -282 286 0
-281 -282 -286 0
281 282 -286 0
-281 282 286 0
283 -284 287 0
-283 -284 -287 0
283 284 -287 0
-283 284 287 0
285 -286 288 0
-285 -286 -288 0
285 286 -288 0
-285 286 288 0
287 288 0
-287 -288 0
1 2 289 0
-1 2 -289 0
1 -2 -289 0
-1 -2 289 0
6 -9 290 0
-6 -9 -290 0
6 9 -290 0
-6 9 290 0
-10 -13 291 0
10 -13 -291 0
-10 13 -291 0
10 13 291 0
14 16 292 0
-14 16 -292 0
14 -16 -292 0
-14 -16 292 0
17 18 293 0
-17 18 -293 0
17 -18 -293 0
-17 -18 293 0
19 22 294 0
-19 22 -294 0
19 -22 -294 0
-19 -22 294 0
-23 -24 295 0
23 -24 -295 0
-23 24 -295 0
23 24 295 0
-28 -31 296 0
28 -31 -296 0
-28 31 -296 0
28 31 296 0
32 33 297 0
-32 33 -297 0
32 -33 -297 0
-32 -33 297 0
-37 -41 298 0
37 -41 -298 0
-37 41 -298 0
37 41 298 0
-44 46 299 0
44 46 -299 0
-44 -46 -299 0
44 -46 299 0
288 -289 300 0
-288 -289 -300 0
288 289 -300 0
-288 289 300 0
290 -291 301 0
-290 -291 -301 0
290 291 -301 0
-290 291 301 0
292 -293 302 0
-292 -293 -302 0
292 293 -302 0
-292 293 302 0
294 -295 303 0
-294 -295 -303 0
294 295 -303 0
-294 295 303 0
296 -297 304 0
-296 -297 -304 0
296 297 -304 0
-296 297 304 0
298 -299 305 0
-298 -299 -305 0
298 299 -305 0
-298 299 305 0
300 -301 306 0
-300 -301 -306 0
300 301 -306 0
-300 301 306 0
302 -303 307 0
-302 -303 -307 0
302 303 -307 0
-302 303 307 0
304 -305 308 0
-304 -305 -308 0
304 305 -308 0
-304 305 308 0
-306 -307 308 0
306 -307 -308 0
-306 307 -308 0
306 307 308 0
1 -2 309 0
-1 -2 -309 0
1 2 -309 0
-1 2 309 0
3 -4 310 0
-3 -4 -310 0
3 4 -310 0
-3 4 310 0
5 6 311 0
-5 6 -311 0
5 -6 -311 0
-5 -6 311 0
-7 8 312 0
7 8 -312 0
-7 -8 -312 0
7 -8 312 0
-9 -12 313 0
9 -12 -313 0
-9 12 -313 0
9 12 313 0
-13 -14 314 0
13 -14 -314 0
-13 14 -314 0
13 14 314 0
-15 16 315 0
15 16 -315 0
-15 -16 -315 0
15 -16 315 0
23 25 316 0
-23 25 -316 0
23 -25 -316 0
-23 -25 316 0
-30 31 317 0
30 31 -317 0
-30 -31 -317 0
30 -31 317 0
-33 -37 318 0
33 -37 -318 0
-33 37 -318 0
33 37 318 0
-43 48 319 0
43 48 -319 0
-43 -48 -319 0
43 -48 319 0
308 -309 320 0
-308 -309 -320 0
308 309 -320 0
-308 309 320 0
310 -311 321 0
-310 -311 -321 0
310 311 -321 0
-310 311 321 0
312 -313 322 0
-312 -313 -322 0
312 313 -322 0
-312 313 322 0
314 -315 323 0
-314 -315 -323 0
314 315 -323 0
-314 315 323 0
316 -317 324 0
-316 -317 -324 0
316 317 -324 0
-316 317 324 0
318 -319 325 0
-318 -319 -325 0
318 319 -325 0
-318 319 325 0
320 -321 326 0
-320 -321 -326 0
320 321 -326 0
-320 321 326 0
322 -323 327 0
-322 -323 -327 0
322 323 -327 0
-322 323 327 0
324 -325 328 0
-324 -325 -328 0
324 325 -328 0
-324 325 328 0
-326 -327 328 0
326 -327 -328 0
-326 327 -328 0
326 327 328 0
3 4 329 0
-3 4 -329 0
3 -4 -329 0
-3 -4 329 0
5 8 330 0
-5 8 -330 0
5 -8 -330 0
-5 -8 330 0
12 13 331 0
-12 13 -331 0
12 -13 -331 0
-12 -13 331 0
14 16 332 0
-14 16 -332 0
14 -16 -332 0
-14 -16 332 0
17 -18 333 0
-17 -18 -333 0
17 18 -333 0
-17 18 333 0
-20 -21 334 0
20 -21 -334 0
-20 21 -334 0
20 21 334 0
-25 26 335 0
25 26 -335 0
-25 -26 -335 0
25 -26 335 0
27 28 336 0
-27 28 -336 0
27 -28 -336 0
-27 -28 336 0
30 -31 337 0
-30 -31 -337 0
30 31 -337 0
-30 31 337 0
-34 -36 338 0
34 -36 -338 0
-34 36 -338 0
34 36 338 0
37 -39 339 0
-37 -39 -339 0
37 39 -339 0
-37 39 339 0
-40 43 340 0
40 43 -340 0
-40 -43 -340 0
40 -43 340 0
-47 -49 341 0
47 -49 -341 0
-47 49 -341 0
47 49 341 0
329 -330 342 0
-329 -330 -342 0
329 330 -342 0
-329 330 342 0
331 -332 343 0
-331 -332 -343 0
331 332 -343 0
-331 332 343 0
333 -334 344 0
-333 -334 -344 0
333 334 -344 0
-333 334 344 0
335 -336 345 0
-335 -336 -345 0
335 336 -345 0
-335 336 345 0
337 -338 346 0
-337 -338 -346 0
337 338 -346 0
-337 338 346 0
339 -340 347 0
-339 -340 -347 0
339 340 -347 0
-339 340 347 0
341 -342 348 0
-341 -342 -348 0
341 342 -348 0
-341 342 348 0
343 -344 349 0
-343 -344 -349 0
343 344 -349 0
-343 344 349 0
345 -346 350 0
-345 -346 -350 0
345 346 -350 0
-345 346 350 0
347 -348 351 0
-347 -348 -351 0
347 348 -351 0
-347 348 351 0
349 -350 352 0
-349 -350 -352 0
349 350 -352 0
-349 350 352 0
351 352 0
-351 -352 0
-2 -3 353 0
2 -3 -353 0
-2 3 -353 0
2 3 353 0
-9 11 354 0
9 11 -354 0
-9 -11 -354 0
9 -11 354 0
12 15 355 0
-12 15 -355 0
12 -15 -355 0
-12 -15 355 0
-16 -17 356 0
16 -17 -356 0
-16 17 -356 0
16 17 356 0
-24 25 357 0
24 25 -357 0
-24 -25 -357 0
24 -25 357 0
27 29 358 0
-27 29 -358 0
27 -29 -358 0
-27 -29 358 0
31 -33 359 0
-31 -33 -359 0
31 33 -359 0
-31 33 359 0
35 -37 360 0
-35 -37 -360 0
35 37 -360 0
-35 37 360 0
-39 40 361 0
39 40 -361 0
-39 -40 -361 0
39 -40 361 0
352 -353 362 0
-352 -353 -362 0
352 353 -362 0
-352 353 362 0
354 -355 363 0
-354 -355 -363 0
354 355 -363 0
-354 355 363 0
356 -357 364 0
-356 -357 -364 0
356 357 -364 0
-356 357 364 0
358 -359 365 0
-358 -359 -365 0
358 359 -365 0
-358 359 365 0
360 -361 366 0
-360 -361 -366 0
360 361 -366 0
-360 361 366 0
362 -363 367 0
-362 -363 -367 0
362 363 -367 0
-362 363 367 0
364 -365 368 0
-364 -365 -368 0
364 365 -368 0
-364 365 368 0
-366 -367 368 0
366 -367 -368 0
-366 367 -368 0
366 367 368 0
2 -3 369 0
-2 -3 -369 0
2 3 -369 0
-2 3 369 0
-6 -7 370 0
6 -7 -370 0
-6 7 -370 0
6 7 370 0
10 12 371 0
-10 12 -371 0
10 -12 -371 0
-10 -12 371 0
13 19 372 0
-13 19 -372 0
13 -19 -372 0
-13 -19 372 0
20 21 373 0
-20 21 -373 0
20 -21 -373 0
-20 -21 373 0
24 -28 374 0
-24 -28 -374 0
24 28 -374 0
-24 28 374 0
43 46 375 0
-43 46 -375 0
43 -46 -375 0
-43 -46 375 0
368 -369 376 0
-368 -369 -376 0
368 369 -376 0
-368 369 376 0
370 -371 377 0
-370 -371 -377 0
370 371 -377 0
-370 371 377 0
372 -373 378 0
-372 -373 -378 0
372 373 -378 0
-372 373 378 0
374 -375 379 0
-374 -375 -379 0
374 375 -379 0
-374 375 379 0
376 -377 380 0
-376 -377 -380 0
376 377 -380 0
-376 377 380 0
378 -379 381 0
-378 -379 -381 0
378 379 -381 0
-378 379 381 0
380 381 0
-380 -381 0
-1 2 382 0
1 2 -382 0
-1 -2 -382 0
1 -2 382 0
-5 -6 383 0
5 -6 -383 0
-5 6 -383 0
5 6 383 0
-9 -11 384 0
9 -11 -384 0
-9 11 -384 0
9 11 384 0
12 -13 385 0
-12 -13 -385 0
12 13 -385 0
-12 13 385 0
-14 16 386 0
14 16 -386 0
-14 -16 -386 0
14 -16 386 0
19 21 387 0
-19 21 -387 0
19 -21 -387 0
-19 -21 387 0
23 24 388 0
-23 24 -388 0
23 -24 -388 0
-23 -24 388 0
25 -27 389 0
-25 -27 -389 0
25 27 -389 0
-25 27 389 0
29 31 390 0
-29 31 -390 0
29 -31 -390 0
-29 -31 390 0
32 33 391 0
-32 33 -391 0
32 -33 -391 0
-32 -33 391 0
-34 36 392 0
34 36 -392 0
-34 -36 -392 0
34 -36 392 0
-37 -39 393 0
37 -39 -393 0
-37 39 -393 0
37 39 393 0
43 45 394 0
-43 45 -394 0
43 -45 -394 0
-43 -45 394 0
381 -382 395 0
-381 -382 -395 0
381 382 -395 0
-381 382 395 0
383 -384 396 0
-383 -384 -396 0
383 384 -396 0
-383 384 396 0
385 -386 397 0
-385 -386 -397 0
385 386 -397 0
-385 386 397 0
387 -388 398 0
-387 -388 -398 0
387 388 -398 0
-387 388 398 0
389 -390 399 0
-389 -390 -399 0
389 390 -399 0
-389 390 399 0
391 -392 400 0
-391 -392 -400 0
391 392 -400 0
-391 392 400 0
393 -394 401 0
-393 -394 -401 0
393 394 -401 0
-393 394 401 0
395 -396 402 0
-395 -396 -402 0
395 396 -402 0
-395 396 402 0
397 -398 403 0
-397 -398 -403 0
397 398 -403 0
-397 398 403 0
399 -400 404 0
-399 -400 -404 0
399 400 -404 0
-399 400 404 0
401 -402 405 0
-401 -402 -405 0
401 402 -405 0
-401 402 405 0
403 -404 406 0
-403 -404 -406 0
403 404 -406 0
-403 404 406 0
405 406 0
-405 -406 0
-5 -7 407 0
5 -7 -407 0
-5 7 -407 0
5 7 407 0
11 12 408 0
-11 12 -408 0
11 -12 -408 0
-11 -12 408 0
-14 -18 409 0
14 -18 -409 0
-14 18 -409 0
14 18 409 0
19 -20 410 0
-19 -20 -410 0
19 20 -410 0
-19 20 410 0
24 25 411 0
-24 25 -411 0
24 -25 -411 0
-24 -25 411 0
-28 32 412 0
28 32 -412 0
-28 -32 -412 0
28 -32 412 0
33 -34 413 0
-33 -34 -413 0
33 34 -413 0
-33 34 413 0
-36 37 414 0
36 37 -414 0
-36 -37 -414 0
36 -37 414 0
38 39 415 0
-38 39 -415 0
38 -39 -415 0
-38 -39 415 0
-40 41 416 0
40 41 -416 0
-40 -41 -416 0
40 -41 416 0
-42 -44 417 0
42 -44 -417 0
-42 44 -417 0
42 44 417 0
-45 -46 418 0
45 -46 -418 0
-45 46 -418 0
45 46 418 0
-48 49 419 0
48 49 -419 0
-48 -49 -419 0
48 -49 419 0
406 -407 420 0
-406 -407 -420 0
406 407 -420 0
-406 407 420 0
408 -409 421 0
-408 -409 -421 0
408 409 -421 0
-408 409 421 0
410 -411 422 0
-410 -411 -422 0
410 411 -422 0
-410 411 422 0
412 -413 423 0
-412 -413 -423 0
412 413 -423 0
-412 413 423 0
414 -415 424 0
-414 -415 -424 0
414 415 -424 0
-414 415 424 0
416 -417 425 0
-416 -417 -425 0
416 417 -425 0
-416 417 425 0
418 -419 426 0
-418 -419 -426 0
418 419 -426 0
-418 419 426 0
420 -421 427 0
-420 -421 -427 0
420 421 -427 0
-420 421 427 0
422 -423 428 0
-422 -423 -428 0
422 423 -428 0
-422 423 428 0
424 -425 429 0
-424 -425 -429 0
424 425 -429 0
-424 425 429 0
426 -427 430 0
-426 -427 -430 0
426 427 -430 0
-426 427 430 0
428 -429 431 0
-428 -429 -431 0
428 429 -431 0
-428 429 431 0
430 431 0
-430 -431 0
2 -4 432 0
-2 -4 -432 0
2 4 -432 0
-2 4 432 0
-6 -7 433 0
6 -7 -433 0
-6 7 -433 0
6 7 433 0
-8 9 434 0
8 9 -434 0
-8 -9 -434 0
8 -9 434 0
11 -12 435 0
-11 -12 -435 0
11 12 -435 0
-11 12 435 0
-13 15 436 0
13 15 -436 0
-13 -15 -436 0
13 -15 436 0
-17 18 437 0
17 18 -437 0
-17 -18 -437 0
17 -18 437 0
-19 20 438 0
19 20 -438 0
-19 -20 -438 0
19 -20 438 0
23 -24 439 0
-23 -24 -439 0
23 24 -439 0
-23 24 439 0
26 -29 440 0
-26 -29 -440 0
26 29 -440 0
-26 29 440 0
-39 -41 441 0
39 -41 -441 0
-39 41 -441 0
39 41 441 0
-43 -44 442 0
43 -44 -442 0
-43 44 -442 0
43 44 442 0
431 -432 443 0
-431 -432 -443 0
431 432 -443 0
-431 432 443 0
433 -434 444 0
-433 -434 -444 0
433 434 -444 0
-433 434 444 0
435 -436 445 0
-435 -436 -445 0
435 436 -445 0
-435 436 445 0
437 -438 446 0
-437 -438 -446 0
437 438 -446 0
-437 438 446 0
439 -440 447 0
-439 -440 -447 0
439 440 -447 0
-439 440 447 0
441 -442 448 0
-441 -442 -448 0
441 442 -448 0
-441 442 448 0
443 -444 449 0
-443 -444 -449 0
443 444 -449 0
-443 444 449 0
445 -446 450 0
-445 -446 -450 0
445 446 -450 0
-445 446 450 0
447 -448 451 0
-447 -448 -451 0
447 448 -451 0
-447 448 451 0
-449 -450 451 0
449 -450 -451 0
-449 450 -451 0
449 450 451 0
1 -2 452 0
-1 -2 -452 0
1 2 -452 0
-1 2 452 0
-3 -4 453 0
3 -4 -453 0
-3 4 -453 0
3 4 453 0
5 8 454 0
-5 8 -454 0
5 -8 -454 0
-5 -8 454 0
11 -12 455 0
-11 -12 -455 0
11 12 -455 0
-11 12 455 0
13 14 456 0
-13 14 -456 0
13 -14 -456 0
-13 -14 456 0
15 16 457 0
-15 16 -457 0
15 -16 -457 0
-15 -16 457 0
17 -19 458 0
-17 -19 -458 0
17 19 -458 0
-17 19 458 0
-20 -21 459 0
20 -21 -459 0
-20 21 -459 0
20 21 459 0
-24 25 460 0
24 25 -460 0
-24 -25 -460 0
24 -25 460 0
-26 27 461 0
26 27 -461 0
-26 -27 -461 0
26 -27 461 0
28 -31 462 0
-28 -31 -462 0
28 31 -462 0
-28 31 462 0
-33 36 463 0
33 36 -463 0
-33 -36 -463 0
33 -36 463 0
37 -41 464 0
-37 -41 -464 0
37 41 -464 0
-37 41 464 0
-42 43 465 0
42 43 -465 0
-42 -43 -465 0
42 -43 465 0
-45 46 466 0
45 46 -466 0
-45 -46 -466 0
45 -46 466 0
47 48 467 0
-47 48 -467 0
47 -48 -467 0
-47 -48 467 0
49 50 468 0
-49 50 -468 0
49 -50 -468 0
-49 -50 468 0
452 -453 469 0
-452 -453 -469 0
452 453 -469 0
-452 453 469 0
454 -455 470 0
-454 -455 -470 0
454 455 -470 0
-454 455 470 0
456 -457 471 0
-456 -457 -471 0
456 457 -471 0
-456 457 471 0
458 -459 472 0
-458 -459 -472 0
458 459 -472 0
-458 459 472 0
460 -461 473 0
-460 -461 -473 0
460 461 -473 0
-460 461 473 0
462 -463 474 0
-462 -463 -474 0
462 463 -474 0
-462 463 474 0
464 -465 475 0
-464 -465 -475 0
464 465 -475 0
-464 465 475 0
466 -467 476 0
-466 -467 -476 0
466 467 -476 0
-466 467 476 0
468 -469 477 0
-468 -469 -477 0
468 469 -477 0
-468 469 477 0
470 -471 478 0
-470 -471 -478 0
470 471 -478 0
-470 471 478 0
472 -473 479 0
-472 -473 -479 0
472 473 -479 0
-472 473 479 0
474 -475 480 0
-474 -475 -480 0
474 475 -480 0
-474 475 480 0
476 -477 481 0
-476 -477 -481 0
476 477 -481 0
-476 477 481 0
478 -479 482 0
-478 -479 -482 0
478 479 -482 0
-478 479 482 0
-480 -481 482 0
480 -481 -482 0
-480 481 -482 0
480 481 482 0
-12 483 0
-24 483 0
-12 -24 484 0
-23 483 0
-12 -23 484 0
-24 -23 484 0
-12 -24 -23 485 0
-22 486 0
-21 486 0
-22 -21 487 0
-20 486 0
-22 -20 487 0
-21 -20 487 0
-22 -21 -20 488 0
-483 489 0
-484 490 0
-485 491 0
-486 489 0
-487 490 0
-488 491 0
-483 -486 490 0
-483 -487 491 0
-483 -488 492 0
-484 -486 491 0
-484 -487 492 0
-484 -488 493 0
-485 -486 492 0
-485 -487 493 0
-485 -488 494 0
-19 495 0
-18 495 0
-19 -18 496 0
-17 495 0
-19 -17 496 0
-18 -17 496 0
-19 -18 -17 497 0
-16 498 0
-15 498 0
-16 -15 499 0
-14 498 0
-16 -14 499 0
-15 -14 499 0
-16 -15 -14 500 0
-495 501 0
-496 502 0
-497 503 0
-498 501 0
-499 502 0
-500 503 0
-495 -498 502 0
-495 -499 503 0
-495 -500 504 0
-496 -498 503 0
-496 -499 504 0
-496 -500 505 0
-497 -498 504 0
-497 -499 505 0
-497 -500 506 0
-489 507 0
-491 508 0
-493 509 0
-501 507 0
-503 508 0
-505 509 0
-489 -501 508 0
-489 -503 509 0
-489 -505 510 0
-491 -501 509 0
-491 -503 510 0
-491 -505 511 0
-493 -501 510 0
-493 -503 511 0
-493 -505 512 0
-490 513 0
-492 514 0
-494 515 0
-502 513 0
-504 514 0
-506 515 0
-490 -502 514 0
-490 -504 515 0
-490 -506 516 0
-492 -502 515 0
-492 -504 516 0
-492 -506 517 0
-494 -502 516 0
-494 -504 517 0
-494 -506 518 0
-508 519 0
-513 519 0
-508 -513 520 0
-509 521 0
-514 521 0
-509 -514 522 0
-510 523 0
-515 523 0
-510 -515 524 0
-511 525 0
-516 525 0
-511 -516 526 0
-512 527 0
-517 527 0
-512 -517 528 0
-13 529 0
-25 529 0
-13 -25 530 0
-11 529 0
-13 -11 530 0
-25 -11 530 0
-13 -25 -11 531 0
-10 532 0
-9 532 0
-10 -9 533 0
-8 532 0
-10 -8 533 0
-9 -8 533 0
-10 -9 -8 534 0
-529 535 0
-530 536 0
-531 537 0
-532 535 0
-533 536 0
-534 537 0
-529 -532 536 0
-529 -533 537 0
-529 -534 538 0
-530 -532 537 0
-530 -533 538 0
-530 -534 539 0
-531 -532 538 0
-531 -533 539 0
-531 -534 540 0
-7 541 0
-6 541 0
-7 -6 542 0
-5 541 0
-7 -5 542 0
-6 -5 542 0
-7 -6 -5 543 0
-4 544 0
-3 544 0
-4 -3 545 0
-2 544 0
-4 -2 545 0
-3 -2 545 0
-4 -3 -2 546 0
-541 547 0
-542 548 0
-543 549 0
-544 547 0
-545 548 0
-546 549 0
-541 -544 548 0
-541 -545 549 0
-541 -546 550 0
-542 -544 549 0
-542 -545 550 0
-542 -546 551 0
-543 -544 550 0
-543 -545 551 0
-543 -546 552 0
-535 553 0
-537 554 0
-539 555 0
-547 553 0
-549 554 0
-551 555 0
-535 -547 554 0
-535 -549 555 0
-535 -551 556 0
-537 -547 555 0
-537 -549 556 0
-537 -551 557 0
-539 -547 556 0
-539 -549 557 0
-539 -551 558 0
-536 559 0
-538 560 0
-540 561 0
-548 559 0
-550 560 0
-552 561 0
-536 -548 560 0
-536 -550 561 0
-536 -552 562 0
-538 -548 561 0
-538 -550 562 0
-538 -552 563 0
-540 -548 562 0
-540 -550 563 0
-540 -552 564 0
-554 565 0
-559 565 0
-554 -559 566 0
-555 567 0
-560 567 0
-555 -560 568 0
-556 569 0
-561 569 0
-556 -561 570 0
-557 571 0
-562 571 0
-557 -562 572 0
-558 573 0
-563 573 0
-558 -563 574 0
-1 575 0
-37 575 0
-1 -37 576 0
-49 575 0
-1 -49 576 0
-37 -49 576 0
-1 -37 -49 577 0
-48 578 0
-47 578 0
-48 -47 579 0
-46 578 0
-48 -46 579 0
-47 -46 579 0
-48 -47 -46 580 0
-575 581 0
-576 582 0
-577 583 0
-578 581 0
-579 582 0
-580 583 0
-575 -578 582 0
-575 -579 583 0
-575 -580 584 0
-576 -578 583 0
-576 -579 584 0
-576 -580 585 0
-577 -578 584 0
-577 -579 585 0
-577 -580 586 0
-45 587 0
-44 587 0
-45 -44 588 0
-43 587 0
-45 -43 588 0
-44 -43 588 0
-45 -44 -43 589 0
-42 590 0
-41 590 0
-42 -41 591 0
-40 590 0
-42 -40 591 0
-41 -40 591 0
-42 -41 -40 592 0
-587 593 0
-588 594 0
-589 595 0
-590 593 0
-591 594 0
-592 595 0
-587 -590 594 0
-587 -591 595 0
-587 -592 596 0
-588 -590 595 0
-588 -591 596 0
-588 -592 597 0
-589 -590 596 0
-589 -591 597 0
-589 -592 598 0
-581 599 0
-583 600 0
-585 601 0
-593 599 0
-595 600 0
-597 601 0
-581 -593 600 0
-581 -595 601 0
-581 -597 602 0
-583 -593 601 0
-583 -595 602 0
-583 -597 603 0
-585 -593 602 0
-585 -595 603 0
-585 -597 604 0
-582 605 0
-584 606 0
-586 607 0
-594 605 0
-596 606 0
-598 607 0
-582 -594 606 0
-582 -596 607 0
-582 -598 608 0
-584 -594 607 0
-584 -596 608 0
-584 -598 609 0
-586 -594 608 0
-586 -596 609 0
-586 -598 610 0
-600 611 0
-605 611 0
-600 -605 612 0
-601 613 0
-606 613 0
-601 -606 614 0
-602 615 0
-607 615 0
-602 -607 616 0
-603 617 0
-608 617 0
-603 -608 618 0
-604 619 0
-609 619 0
-604 -609 620 0
-39 621 0
-38 621 0
-39 -38 622 0
-50 621 0
-39 -50 622 0
-38 -50 622 0
-39 -38 -50 623 0
-36 624 0
-35 624 0
-36 -35 625 0
-34 624 0
-36 -34 625 0
-35 -34 625 0
-36 -35 -34 626 0
-621 627 0
-622 628 0
-623 629 0
-624 627 0
-625 628 0
-626 629 0
-621 -624 628 0
-621 -625 629 0
-621 -626 630 0
-622 -624 629 0
-622 -625 630 0
-622 -626 631 0
-623 -624 630 0
-623 -625 631 0
-623 -626 632 0
-33 633 0
-32 633 0
-33 -32 634 0
-31 633 0
-33 -31 634 0
-32 -31 634 0
-33 -32 -31 635 0
-30 636 0
-29 636 0
-30 -29 637 0
-28 638 0
-27 638 0
-28 -27 639 0
-26 638 0
-28 -26 639 0
-27 -26 639 0
-28 -27 -26 640 0
-636 641 0
-637 642 0
-638 641 0
-639 642 0
-640 643 0
-636 -638 642 0
-636 -639 643 0
-636 -640 644 0
-637 -638 643 0
-637 -639 644 0
-637 -640 645 0
-633 646 0
-634 647 0
-635 648 0
-641 646 0
-642 647 0
-643 648 0
-644 649 0
-645 650 0
-633 -641 647 0
-633 -642 648 0
-633 -643 649 0
-633 -644 650 0
-633 -645 651 0
-634 -641 648 0
-634 -642 649 0
-634 -643 650 0
-634 -644 651 0
-634 -645 652 0
-635 -641 649 0
-635 -642 650 0
-635 -643 651 0
-635 -644 652 0
-635 -645 653 0
-627 654 0
-629 655 0
-631 656 0
-646 654 0
-648 655 0
-650 656 0
-652 657 0
-627 -646 655 0
-627 -648 656 0
-627 -650 657 0
-627 -652 658 0
-629 -646 656 0
-629 -648 657 0
-629 -650 658 0
-629 -652 659 0
-631 -646 657 0
-631 -648 658 0
-631 -650 659 0
-631 -652 660 0
-628 661 0
-630 662 0
-632 663 0
-647 661 0
-649 662 0
-651 663 0
-653 664 0
-628 -647 662 0
-628 -649 663 0
-628 -651 664 0
-628 -653 665 0
-630 -647 663 0
-630 -649 664 0
-630 -651 665 0
-630 -653 666 0
-632 -647 664 0
-632 -649 665 0
-632 -651 666 0
-632 -653 667 0
-655 668 0
-661 668 0
-655 -661 669 0
-656 670 0
-662 670 0
-656 -662 671 0
-657 672 0
-663 672 0
-657 -663 673 0
-658 674 0
-664 674 0
-658 -664 675 0
-659 676 0
-665 676 0
-659 -665 677 0
-660 678 0
-666 678 0
-660 -666 679 0
-599 680 0
-614 681 0
-618 682 0
-654 680 0
-671 681 0
-675 682 0
-679 683 0
-599 -654 681 0
-599 -671 682 0
-599 -675 683 0
-599 -679 684 0
-614 -654 682 0
-614 -671 683 0
-614 -675 684 0
-614 -679 685 0
-618 -654 683 0
-618 -671 684 0
-618 -675 685 0
-612 686 0
-616 687 0
-620 688 0
-669 686 0
-673 687 0
-677 688 0
-612 -669 687 0
-612 -673 688 0
-612 -677 689 0
-616 -669 688 0
-616 -673 689 0
-616 -677 690 0
-620 -669 689 0
-620 -673 690 0
-681 691 0
-686 691 0
-681 -686 692 0
-682 693 0
-687 693 0
-682 -687 694 0
-683 695 0
-688 695 0
-683 -688 696 0
-684 697 0
-689 697 0
-684 -689 698 0
-685 699 0
-690 699 0
-685 -690 700 0
-611 701 0
-615 702 0
-619 703 0
-668 701 0
-672 702 0
-676 703 0
-667 704 0
-611 -668 702 0
-611 -672 703 0
-611 -676 704 0
-611 -667 705 0
-615 -668 703 0
-615 -672 704 0
-615 -676 705 0
-615 -667 706 0
-619 -668 704 0
-619 -672 705 0
-619 -676 706 0
-613 707 0
-617 708 0
-610 709 0
-670 707 0
-674 708 0
-678 709 0
-613 -670 708 0
-613 -674 709 0
-613 -678 710 0
-617 -670 709 0
-617 -674 710 0
-617 -678 711 0
-610 -670 710 0
-610 -674 711 0
-702 712 0
-707 712 0
-702 -707 713 0
-703 714 0
-708 714 0
-703 -708 715 0
-704 716 0
-709 716 0
-704 -709 717 0
-705 718 0
-710 718 0
-705 -710 719 0
-706 720 0
-711 720 0
-691 721 0
-701 721 0
-691 -701 722 0
-692 723 0
-712 723 0
-692 -712 724 0
-693 725 0
-713 725 0
-693 -713 726 0
-694 727 0
-714 727 0
-694 -714 728 0
-695 729 0
-715 729 0
-695 -715 730 0
-696 731 0
-716 731 0
-696 -716 732 0
-697 733 0
-717 733 0
-697 -717 734 0
-698 735 0
-718 735 0
-698 -718 736 0
-699 737 0
-719 737 0
-699 -719 738 0
-700 739 0
-720 739 0
-700 -720 740 0
-553 741 0
-568 742 0
-572 743 0
-680 741 0
-724 742 0
-728 743 0
-732 744 0
-736 745 0
-740 746 0
-553 -680 742 0
-553 -724 743 0
-553 -728 744 0
-553 -732 745 0
-553 -736 746 0
-568 -680 743 0
-568 -724 744 0
-568 -728 745 0
-568 -732 746 0
-572 -680 744 0
-572 -724 745 0
-572 -728 746 0
-566 747 0
-570 748 0
-574 749 0
-722 747 0
-726 748 0
-730 749 0
-734 750 0
-738 751 0
-566 -722 748 0
-566 -726 749 0
-566 -730 750 0
-566 -734 751 0
-570 -722 749 0
-570 -726 750 0
-570 -730 751 0
-574 -722 750 0
-574 -726 751 0
-742 752 0
-747 752 0
-742 -747 753 0
-743 754 0
-748 754 0
-743 -748 755 0
-744 756 0
-749 756 0
-744 -749 757 0
-745 758 0
-750 758 0
-745 -750 759 0
-746 760 0
-751 760 0
-746 -751 761 0
-565 762 0
-569 763 0
-573 764 0
-721 762 0
-725 763 0
-729 764 0
-733 765 0
-737 766 0
-565 -721 763 0
-565 -725 764 0
-565 -729 765 0
-565 -733 766 0
-565 -737 767 0
-569 -721 764 0
-569 -725 765 0
-569 -729 766 0
-569 -733 767 0
-573 -721 765 0
-573 -725 766 0
-573 -729 767 0
-567 768 0
-571 769 0
-564 770 0
-723 768 0
-727 769 0
-731 770 0
-735 771 0
-739 772 0
-567 -723 769 0
-567 -727 770 0
-567 -731 771 0
-567 -735 772 0
-571 -723 770 0
-571 -727 771 0
-571 -731 772 0
-564 -723 771 0
-564 -727 772 0
-763 773 0
-768 773 0
-763 -768 774 0
-764 775 0
-769 775 0
-764 -769 776 0
-765 777 0
-770 777 0
-765 -770 778 0
-766 779 0
-771 779 0
-766 -771 780 0
-767 781 0
-772 781 0
-752 782 0
-762 782 0
-752 -762 783 0
-753 784 0
-773 784 0
-753 -773 785 0
-754 786 0
-774 786 0
-754 -774 787 0
-755 788 0
-775 788 0
-755 -775 789 0
-756 790 0
-776 790 0
-756 -776 791 0
-757 792 0
-777 792 0
-757 -777 793 0
-758 794 0
-778 794 0
-758 -778 795 0
-759 796 0
-779 796 0
-759 -779 797 0
-760 798 0
-780 798 0
-760 -780 799 0
-761 800 0
-781 800 0
-761 -781 801 0
-507 802 0
-522 803 0
-526 804 0
-741 802 0
-785 803 0
-789 804 0
-793 805 0
-797 806 0
-801 807 0
-507 -741 803 0
-507 -785 804 0
-507 -789 805 0
-507 -793 806 0
-507 -797 807 0
-522 -741 804 0
-522 -785 805 0
-522 -789 806 0
-522 -793 807 0
-526 -741 805 0
-526 -785 806 0
-526 -789 807 0
-520 808 0
-524 809 0
-528 810 0
-783 808 0
-787 809 0
-791 810 0
-795 811 0
-799 812 0
-520 -783 809 0
-520 -787 810 0
-520 -791 811 0
-520 -795 812 0
-524 -783 810 0
-524 -787 811 0
-524 -791 812 0
-528 -783 811 0
-528 -787 812 0
-803 813 0
-808 813 0
-803 -808 814 0
-804 815 0
-809 815 0
-804 -809 816 0
-805 817 0
-810 817 0
-805 -810 818 0
-806 819 0
-811 819 0
-806 -811 820 0
-807 821 0
-812 821 0
-807 -812 822 0
-519 823 0
-523 824 0
-527 825 0
-782 823 0
-786 824 0
-790 825 0
-794 826 0
-798 827 0
-519 -782 824 0
-519 -786 825 0
-519 -790 826 0
-519 -794 827 0
-519 -798 828 0
-523 -782 825 0
-523 -786 826 0
-523 -790 827 0
-523 -794 828 0
-527 -782 826 0
-527 -786 827 0
-527 -790 828 0
-521 829 0
-525 830 0
-518 831 0
-784 829 0
-788 830 0
-792 831 0
-796 832 0
-800 833 0
-521 -784 830 0
-521 -788 831 0
-521 -792 832 0
-521 -796 833 0
-525 -784 831 0
-525 -788 832 0
-525 -792 833 0
-518 -784 832 0
-518 -788 833 0
-824 834 0
-829 834 0
-824 -829 835 0
-825 836 0
-830 836 0
-825 -830 837 0
-826 838 0
-831 838 0
-826 -831 839 0
-827 840 0
-832 840 0
-827 -832 841 0
-828 842 0
-833 842 0
-813 843 0
-823 843 0
-813 -823 844 0
-814 845 0
-834 845 0
-814 -834 846 0
-815 847 0
-835 847 0
-815 -835 848 0
-816 849 0
-836 849 0
-816 -836 850 0
-817 851 0
-837 851 0
-817 -837 852 0
-818 853 0
-838 853 0
-818 -838 854 0
-819 855 0
-839 855 0
-819 -839 856 0
-820 857 0
-840 857 0
-820 -840 858 0
-821 859 0
-841 859 0
-821 -841 860 0
-822 861 0
-842 861 0
-822 -842 862 0
-862 0
